
-2.6
-2.6
-2.6
-2.5
-2.4
-2.4
-2.3
-2.2
-2.0
-1.7
-1.0
-0.9
-0.8
-0.5
-0.4
-0.3
-0.2
-0.2
-0.1
-0.1
-0.1
-0.1
-0.1
-0.1
-0.1
-0.1
-0.1
-0.1
-0.1
-0.1
-0.1
-0.1
-0.1
-0.1
-0.1
-2.75
-2.7
-2.55
-2.45
-2.35
-2.3
-2.25
-1.8
-1.6
-1.25
-1.05
-0.75
-0.65
-0.5
-0.4
-0.2
-0.15
-0.1
-0.1
0.0
0.0
0.0
0.0
0.0
0.0
0.0
0.0
0.0
0.0
0.0
0.0
0.0
0.0
0.0
0.0